/*********************************************
 * OPL 12.6.0.0 Data
 * Author: Adrian Rodriguez Bazaga, Pau Rodriguez Esmerats
 * Creation Date: 21/11/2017 at 23:07:30
 *********************************************/

nNurses=175;
maxConsec=2;
maxPresence=7;
maxHours=5;
minHours=1;
demand= [41 37 65 68 37 65 68 41 45 34 1 9 4 11 7 7 6 4 6 2 30 67 40 48  ];
